% demand
num_movements = 54;
loading_factor = [2000, 1050, 1900, 1000, 1650, 1100, 850, 1100, 1750, 1850, 1700, 800, 1100, 1500, 1700, 1650, 1000, 1500, 1100, 1250, 1450, 1150, 1450, 1050, 1450, 1150, 950, 1900, 1400, 1600, 1300, 800, 2000, 800, 1850, 1250, 1750, 1800, 1300, 1900, 1600, 1400, 1900, 1850, 1050, 1450, 2000, 1700, 1300, 1650, 1050, 1000, 900, 1050];
pickup_time = [0, 0, 0, 0, 1, 1, 1, 1, 1, 1, 1, 1, 2, 2, 2, 2, 2, 2, 5, 5, 5, 5, 5, 5, 5, 5, 5, 6, 6, 6, 7, 7, 7, 7, 7, 8, 8, 8, 8, 8, 8, 8, 10, 10, 10, 10, 10, 11, 12, 13, 13, 13, 13, 13];
delivery_time = [1, 1, 1, 1, 2, 2, 2, 4, 2, 2, 2, 2, 3, 4, 4, 4, 4, 4, 6, 6, 6, 6, 8, 6, 7, 7, 8, 7, 7, 8, 8, 8, 8, 8, 8, 13, 10, 10, 10, 10, 10, 11, 14, 11, 11, 14, 11, 12, 14, 14, 14, 14, 14, 14];

% transporter definition
total_capacity = 11000;
num_decks = 4;
capacity = [3000, 3000, 1000, 4000];

% ways out of decks
num_ways_out = 2;
paths_out = array3d(decks, ways_out, decks, [
% ways out of deck d1
2, 4, 0, 0, 3, 4, 0, 0, 

% ways out of deck d2
4, 0, 0, 0, 0, 0, 0, 0,	

% ways out of deck d3
4, 0, 0, 0, 0, 0, 0, 0,	

% ways out of deck d4
0, 0, 0, 0,	0, 0, 0, 0,	

]);

